c This is QMaxSAT 2017 based on 14.07
c This is Glucose 3.0
c This is MiniSat 2.2.0
c WARNING: for repeatability, setting FPU to use double precision
c card = mrwto, comp = 0, pmodel = 0, narr = 38, mct = 76, verb = 0
cr firstCPXsol 0 0 0
c top = 189219
c |  Number of variables:    25538                                            |
c |  Number of clauses:      2198251                                          |
c |  Weight of hard clauses: 189219                                           |
c |  Number of soft clauses: 427500                                           |
c |  Number of unit soft clauses: 0                                           |
c |  Maximum Cardinality (by unit): 13843476     (0           )               |
c last restart ## conflicts  :  153 8420 
o 530 | cpuTime 174.103 s
c Sum of weights = 364302
c A number of soft clauses remained = 11250
c MRWTO encoding for Pseudo-Boolean Constraints
c sizeMax=530
c No.0 Divisor=9	generated by pow1
c No.1 Divisor=9	generated by pow1
c No.2 Divisor=9	generated by pow1
c p0= 9	p1= 9	p2= 9	
c number of digits = 4
c linkingVar[0].size = 9, linkingVar[1].size = 9, linkingVar[2].size = 7, linkingVar[3].size = 1, 
c Pseudo-Boolean Constraints: 191054 variables and 1361147 clauses
c Sum of weights = 364302
c A number of soft clauses remained = 11250
c MRWTO encoding for Pseudo-Boolean Constraints
c sizeMax=530
c No.0 Divisor=9	generated by pow1
c No.1 Divisor=9	generated by pow1
c No.2 Divisor=9	generated by pow1
c p0= 9	p1= 9	p2= 9	
c number of digits = 4
c linkingVar[0].size = 9, linkingVar[1].size = 9, linkingVar[2].size = 7, linkingVar[3].size = 1, 
c Pseudo-Boolean Constraints: 191054 variables and 1361147 clauses
c Sum of weights = 364302
c A number of soft clauses remained = 11250
c MRWTO encoding for Pseudo-Boolean Constraints
c sizeMax=530
c No.0 Divisor=9	generated by pow1
c No.1 Divisor=9	generated by pow1
c No.2 Divisor=9	generated by pow1
c p0= 9	p1= 9	p2= 9	
c number of digits = 4
c linkingVar[0].size = 9, linkingVar[1].size = 9, linkingVar[2].size = 7, linkingVar[3].size = 1, 
c Pseudo-Boolean Constraints: 191054 variables and 1361147 clauses
c Sum of weights = 364302
c A number of soft clauses remained = 11250
c MRWTO encoding for Pseudo-Boolean Constraints
c sizeMax=530
c No.0 Divisor=9	generated by pow1
c No.1 Divisor=9	generated by pow1
c No.2 Divisor=9	generated by pow1
c p0= 9	p1= 9	p2= 9	
c number of digits = 4
c linkingVar[0].size = 9, linkingVar[1].size = 9, linkingVar[2].size = 7, linkingVar[3].size = 1, 
c Pseudo-Boolean Constraints: 191054 variables and 1361147 clauses
c Sum of weights = 364302
c A number of soft clauses remained = 11250
c MRWTO encoding for Pseudo-Boolean Constraints
c sizeMax=530
c No.0 Divisor=9	generated by pow1
c No.1 Divisor=9	generated by pow1
c No.2 Divisor=9	generated by pow1
c p0= 9	p1= 9	p2= 9	
c number of digits = 4
c linkingVar[0].size = 9, linkingVar[1].size = 9, linkingVar[2].size = 7, linkingVar[3].size = 1, 
c Pseudo-Boolean Constraints: 191054 variables and 1361147 clauses
c Sum of weights = 364302
c A number of soft clauses remained = 11250
c MRWTO encoding for Pseudo-Boolean Constraints
c sizeMax=530
c No.0 Divisor=9	generated by pow1
c No.1 Divisor=9	generated by pow1
c No.2 Divisor=9	generated by pow1
c p0= 9	p1= 9	p2= 9	
c number of digits = 4
c linkingVar[0].size = 9, linkingVar[1].size = 9, linkingVar[2].size = 7, linkingVar[3].size = 1, 
c Pseudo-Boolean Constraints: 191054 variables and 1361147 clauses
c Sum of weights = 364302
c A number of soft clauses remained = 11250
c MRWTO encoding for Pseudo-Boolean Constraints
c sizeMax=530
c No.0 Divisor=9	generated by pow1
c No.1 Divisor=9	generated by pow1
c No.2 Divisor=9	generated by pow1
c p0= 9	p1= 9	p2= 9	
c number of digits = 4
c linkingVar[0].size = 9, linkingVar[1].size = 9, linkingVar[2].size = 7, linkingVar[3].size = 1, 
c Pseudo-Boolean Constraints: 191054 variables and 1361147 clauses
c Sum of weights = 364302
c A number of soft clauses remained = 11250
c MRWTO encoding for Pseudo-Boolean Constraints
c sizeMax=530
c No.0 Divisor=9	generated by pow1
c No.1 Divisor=9	generated by pow1
c No.2 Divisor=9	generated by pow1
c p0= 9	p1= 9	p2= 9	
c number of digits = 4
c linkingVar[0].size = 9, linkingVar[1].size = 9, linkingVar[2].size = 7, linkingVar[3].size = 1, 
c Pseudo-Boolean Constraints: 191054 variables and 1361147 clauses
c Sum of weights = 364302
c A number of soft clauses remained = 11250
c MRWTO encoding for Pseudo-Boolean Constraints
c sizeMax=530
c No.0 Divisor=9	generated by pow1
c No.1 Divisor=9	generated by pow1
c No.2 Divisor=9	generated by pow1
c p0= 9	p1= 9	p2= 9	
c number of digits = 4
c linkingVar[0].size = 9, linkingVar[1].size = 9, linkingVar[2].size = 7, linkingVar[3].size = 1, 
c Pseudo-Boolean Constraints: 191054 variables and 1361147 clauses
c Sum of weights = 364302
c A number of soft clauses remained = 11250
c MRWTO encoding for Pseudo-Boolean Constraints
c sizeMax=530
c No.0 Divisor=9	generated by pow1
c No.1 Divisor=9	generated by pow1
c No.2 Divisor=9	generated by pow1
c p0= 9	p1= 9	p2= 9	
c number of digits = 4
c linkingVar[0].size = 9, linkingVar[1].size = 9, linkingVar[2].size = 7, linkingVar[3].size = 1, 
c Pseudo-Boolean Constraints: 191054 variables and 1361147 clauses
c Sum of weights = 364302
c A number of soft clauses remained = 11250
c MRWTO encoding for Pseudo-Boolean Constraints
c sizeMax=530
c No.0 Divisor=9	generated by pow1
c No.1 Divisor=9	generated by pow1
c No.2 Divisor=9	generated by pow1
c p0= 9	p1= 9	p2= 9	
c number of digits = 4
c linkingVar[0].size = 9, linkingVar[1].size = 9, linkingVar[2].size = 7, linkingVar[3].size = 1, 
c Pseudo-Boolean Constraints: 191054 variables and 1361147 clauses
c Sum of weights = 364302
c A number of soft clauses remained = 11250
c MRWTO encoding for Pseudo-Boolean Constraints
c sizeMax=530
c No.0 Divisor=9	generated by pow1
c No.1 Divisor=9	generated by pow1
c No.2 Divisor=9	generated by pow1
c p0= 9	p1= 9	p2= 9	
c number of digits = 4
c linkingVar[0].size = 9, linkingVar[1].size = 9, linkingVar[2].size = 7, linkingVar[3].size = 1, 
c Pseudo-Boolean Constraints: 191054 variables and 1361147 clauses
c Sum of weights = 364302
c A number of soft clauses remained = 11250
c MRWTO encoding for Pseudo-Boolean Constraints
c sizeMax=530
c No.0 Divisor=9	generated by pow1
c No.1 Divisor=9	generated by pow1
c No.2 Divisor=9	generated by pow1
c p0= 9	p1= 9	p2= 9	
c number of digits = 4
c linkingVar[0].size = 9, linkingVar[1].size = 9, linkingVar[2].size = 7, linkingVar[3].size = 1, 
c Pseudo-Boolean Constraints: 191054 variables and 1361147 clauses
c Sum of weights = 364302
c A number of soft clauses remained = 11250
c MRWTO encoding for Pseudo-Boolean Constraints
c sizeMax=530
c No.0 Divisor=9	generated by pow1
c No.1 Divisor=9	generated by pow1
c No.2 Divisor=9	generated by pow1
c p0= 9	p1= 9	p2= 9	
c number of digits = 4
c linkingVar[0].size = 9, linkingVar[1].size = 9, linkingVar[2].size = 7, linkingVar[3].size = 1, 
c Pseudo-Boolean Constraints: 191054 variables and 1361147 clauses
c Sum of weights = 364302
c A number of soft clauses remained = 11250
c MRWTO encoding for Pseudo-Boolean Constraints
c sizeMax=530
c No.0 Divisor=9	generated by pow1
c No.1 Divisor=9	generated by pow1
c No.2 Divisor=9	generated by pow1
c p0= 9	p1= 9	p2= 9	
c number of digits = 4
c linkingVar[0].size = 9, linkingVar[1].size = 9, linkingVar[2].size = 7, linkingVar[3].size = 1, 
c Pseudo-Boolean Constraints: 191054 variables and 1361147 clauses
c Sum of weights = 364302
c A number of soft clauses remained = 11250
c MRWTO encoding for Pseudo-Boolean Constraints
c sizeMax=530
c No.0 Divisor=9	generated by pow1
c No.1 Divisor=9	generated by pow1
c No.2 Divisor=9	generated by pow1
c p0= 9	p1= 9	p2= 9	
c number of digits = 4
c linkingVar[0].size = 9, linkingVar[1].size = 9, linkingVar[2].size = 7, linkingVar[3].size = 1, 
c Pseudo-Boolean Constraints: 191054 variables and 1361147 clauses
c Sum of weights = 364302
c A number of soft clauses remained = 11250
c MRWTO encoding for Pseudo-Boolean Constraints
c sizeMax=530
c No.0 Divisor=9	generated by pow1
c No.1 Divisor=9	generated by pow1
c No.2 Divisor=9	generated by pow1
c p0= 9	p1= 9	p2= 9	
c number of digits = 4
c linkingVar[0].size = 9, linkingVar[1].size = 9, linkingVar[2].size = 7, linkingVar[3].size = 1, 
c Pseudo-Boolean Constraints: 191054 variables and 1361147 clauses
c Sum of weights = 364302
c A number of soft clauses remained = 11250
c MRWTO encoding for Pseudo-Boolean Constraints
c sizeMax=530
c No.0 Divisor=9	generated by pow1
c No.1 Divisor=9	generated by pow1
c No.2 Divisor=9	generated by pow1
c p0= 9	p1= 9	p2= 9	
c number of digits = 4
c linkingVar[0].size = 9, linkingVar[1].size = 9, linkingVar[2].size = 7, linkingVar[3].size = 1, 
c Pseudo-Boolean Constraints: 191054 variables and 1361147 clauses
c Sum of weights = 364302
c A number of soft clauses remained = 11250
c MRWTO encoding for Pseudo-Boolean Constraints
c sizeMax=530
c No.0 Divisor=9	generated by pow1
c No.1 Divisor=9	generated by pow1
c No.2 Divisor=9	generated by pow1
c p0= 9	p1= 9	p2= 9	
c number of digits = 4
c linkingVar[0].size = 9, linkingVar[1].size = 9, linkingVar[2].size = 7, linkingVar[3].size = 1, 
c Pseudo-Boolean Constraints: 191054 variables and 1361147 clauses
c Sum of weights = 364302
c A number of soft clauses remained = 11250
c MRWTO encoding for Pseudo-Boolean Constraints
c sizeMax=530
c No.0 Divisor=9	generated by pow1
c No.1 Divisor=9	generated by pow1
c No.2 Divisor=9	generated by pow1
c p0= 9	p1= 9	p2= 9	
c number of digits = 4
c linkingVar[0].size = 9, linkingVar[1].size = 9, linkingVar[2].size = 7, linkingVar[3].size = 1, 
c Pseudo-Boolean Constraints: 191054 variables and 1361147 clauses
c Sum of weights = 364302
c A number of soft clauses remained = 11250
c MRWTO encoding for Pseudo-Boolean Constraints
c sizeMax=530
c No.0 Divisor=9	generated by pow1
c No.1 Divisor=9	generated by pow1
c No.2 Divisor=9	generated by pow1
c p0= 9	p1= 9	p2= 9	
c number of digits = 4
c linkingVar[0].size = 9, linkingVar[1].size = 9, linkingVar[2].size = 7, linkingVar[3].size = 1, 
c Pseudo-Boolean Constraints: 191054 variables and 1361147 clauses
c Sum of weights = 364302
c A number of soft clauses remained = 11250
c MRWTO encoding for Pseudo-Boolean Constraints
c sizeMax=530
c No.0 Divisor=9	generated by pow1
c No.1 Divisor=9	generated by pow1
c No.2 Divisor=9	generated by pow1
c p0= 9	p1= 9	p2= 9	
c number of digits = 4
c linkingVar[0].size = 9, linkingVar[1].size = 9, linkingVar[2].size = 7, linkingVar[3].size = 1, 
c Pseudo-Boolean Constraints: 191054 variables and 1361147 clauses
c Sum of weights = 364302
c A number of soft clauses remained = 11250
c MRWTO encoding for Pseudo-Boolean Constraints
c sizeMax=530
c No.0 Divisor=9	generated by pow1
c No.1 Divisor=9	generated by pow1
c No.2 Divisor=9	generated by pow1
c p0= 9	p1= 9	p2= 9	
c number of digits = 4
c linkingVar[0].size = 9, linkingVar[1].size = 9, linkingVar[2].size = 7, linkingVar[3].size = 1, 
c Pseudo-Boolean Constraints: 191054 variables and 1361147 clauses
c Sum of weights = 364302
c A number of soft clauses remained = 11250
c MRWTO encoding for Pseudo-Boolean Constraints
c sizeMax=530
c No.0 Divisor=9	generated by pow1
c No.1 Divisor=9	generated by pow1
c No.2 Divisor=9	generated by pow1
c p0= 9	p1= 9	p2= 9	
c number of digits = 4
c linkingVar[0].size = 9, linkingVar[1].size = 9, linkingVar[2].size = 7, linkingVar[3].size = 1, 
c Pseudo-Boolean Constraints: 191054 variables and 1361147 clauses
c Sum of weights = 364302
c A number of soft clauses remained = 11250
c MRWTO encoding for Pseudo-Boolean Constraints
c sizeMax=530
c No.0 Divisor=9	generated by pow1
c No.1 Divisor=9	generated by pow1
c No.2 Divisor=9	generated by pow1
c p0= 9	p1= 9	p2= 9	
c number of digits = 4
c linkingVar[0].size = 9, linkingVar[1].size = 9, linkingVar[2].size = 7, linkingVar[3].size = 1, 
c Pseudo-Boolean Constraints: 191054 variables and 1361147 clauses
c Sum of weights = 364302
c A number of soft clauses remained = 11250
c MRWTO encoding for Pseudo-Boolean Constraints
c sizeMax=530
c No.0 Divisor=9	generated by pow1
c No.1 Divisor=9	generated by pow1
c No.2 Divisor=9	generated by pow1
c p0= 9	p1= 9	p2= 9	
c number of digits = 4
c linkingVar[0].size = 9, linkingVar[1].size = 9, linkingVar[2].size = 7, linkingVar[3].size = 1, 
c Pseudo-Boolean Constraints: 191054 variables and 1361147 clauses
c Sum of weights = 364302
c A number of soft clauses remained = 11250
c MRWTO encoding for Pseudo-Boolean Constraints
c sizeMax=530
c No.0 Divisor=9	generated by pow1
c No.1 Divisor=9	generated by pow1
c No.2 Divisor=9	generated by pow1
c p0= 9	p1= 9	p2= 9	
c number of digits = 4
c linkingVar[0].size = 9, linkingVar[1].size = 9, linkingVar[2].size = 7, linkingVar[3].size = 1, 
c Pseudo-Boolean Constraints: 191054 variables and 1361147 clauses
c Sum of weights = 364302
c A number of soft clauses remained = 11250
c MRWTO encoding for Pseudo-Boolean Constraints
c sizeMax=530
c No.0 Divisor=9	generated by pow1
c No.1 Divisor=9	generated by pow1
c No.2 Divisor=9	generated by pow1
c p0= 9	p1= 9	p2= 9	
c number of digits = 4
c linkingVar[0].size = 9, linkingVar[1].size = 9, linkingVar[2].size = 7, linkingVar[3].size = 1, 
c Pseudo-Boolean Constraints: 191054 variables and 1361147 clauses
c Sum of weights = 364302
c A number of soft clauses remained = 11250
c MRWTO encoding for Pseudo-Boolean Constraints
c sizeMax=530
c No.0 Divisor=9	generated by pow1
c No.1 Divisor=9	generated by pow1
c No.2 Divisor=9	generated by pow1
c p0= 9	p1= 9	p2= 9	
c number of digits = 4
c linkingVar[0].size = 9, linkingVar[1].size = 9, linkingVar[2].size = 7, linkingVar[3].size = 1, 
c Pseudo-Boolean Constraints: 191054 variables and 1361147 clauses
c Sum of weights = 364302
c A number of soft clauses remained = 11250
c MRWTO encoding for Pseudo-Boolean Constraints
c sizeMax=530
c No.0 Divisor=9	generated by pow1
c No.1 Divisor=9	generated by pow1
c No.2 Divisor=9	generated by pow1
c p0= 9	p1= 9	p2= 9	
c number of digits = 4
c linkingVar[0].size = 9, linkingVar[1].size = 9, linkingVar[2].size = 7, linkingVar[3].size = 1, 
c Pseudo-Boolean Constraints: 191054 variables and 1361147 clauses
c Sum of weights = 364302
c A number of soft clauses remained = 11250
c MRWTO encoding for Pseudo-Boolean Constraints
c sizeMax=530
c No.0 Divisor=9	generated by pow1
c No.1 Divisor=9	generated by pow1
c No.2 Divisor=9	generated by pow1
c p0= 9	p1= 9	p2= 9	
c number of digits = 4
c linkingVar[0].size = 9, linkingVar[1].size = 9, linkingVar[2].size = 7, linkingVar[3].size = 1, 
c Pseudo-Boolean Constraints: 191054 variables and 1361147 clauses
c Sum of weights = 364302
c A number of soft clauses remained = 11250
c MRWTO encoding for Pseudo-Boolean Constraints
c sizeMax=530
c No.0 Divisor=9	generated by pow1
c No.1 Divisor=9	generated by pow1
c No.2 Divisor=9	generated by pow1
c p0= 9	p1= 9	p2= 9	
c number of digits = 4
c linkingVar[0].size = 9, linkingVar[1].size = 9, linkingVar[2].size = 7, linkingVar[3].size = 1, 
c Pseudo-Boolean Constraints: 191054 variables and 1361147 clauses
c Sum of weights = 364302
c A number of soft clauses remained = 11250
c MRWTO encoding for Pseudo-Boolean Constraints
c sizeMax=530
c No.0 Divisor=9	generated by pow1
c No.1 Divisor=9	generated by pow1
c No.2 Divisor=9	generated by pow1
c p0= 9	p1= 9	p2= 9	
c number of digits = 4
c linkingVar[0].size = 9, linkingVar[1].size = 9, linkingVar[2].size = 7, linkingVar[3].size = 1, 
c Pseudo-Boolean Constraints: 191054 variables and 1361147 clauses
c Sum of weights = 364302
c A number of soft clauses remained = 11250
c MRWTO encoding for Pseudo-Boolean Constraints
c sizeMax=530
c No.0 Divisor=9	generated by pow1
c No.1 Divisor=9	generated by pow1
c No.2 Divisor=9	generated by pow1
c p0= 9	p1= 9	p2= 9	
c number of digits = 4
c linkingVar[0].size = 9, linkingVar[1].size = 9, linkingVar[2].size = 7, linkingVar[3].size = 1, 
c Pseudo-Boolean Constraints: 191054 variables and 1361147 clauses
c Sum of weights = 364302
c A number of soft clauses remained = 11250
c MRWTO encoding for Pseudo-Boolean Constraints
c sizeMax=530
c No.0 Divisor=9	generated by pow1
c No.1 Divisor=9	generated by pow1
c No.2 Divisor=9	generated by pow1
c p0= 9	p1= 9	p2= 9	
c number of digits = 4
c linkingVar[0].size = 9, linkingVar[1].size = 9, linkingVar[2].size = 7, linkingVar[3].size = 1, 
c Pseudo-Boolean Constraints: 191054 variables and 1361147 clauses
c Sum of weights = 364302
c A number of soft clauses remained = 11250
c MRWTO encoding for Pseudo-Boolean Constraints
c sizeMax=530
c No.0 Divisor=9	generated by pow1
c No.1 Divisor=9	generated by pow1
c No.2 Divisor=9	generated by pow1
c p0= 9	p1= 9	p2= 9	
c number of digits = 4
c linkingVar[0].size = 9, linkingVar[1].size = 9, linkingVar[2].size = 7, linkingVar[3].size = 1, 
c Pseudo-Boolean Constraints: 191054 variables and 1361147 clauses
c Sum of weights = 364302
c A number of soft clauses remained = 11250
c MRWTO encoding for Pseudo-Boolean Constraints
c sizeMax=530
c No.0 Divisor=9	generated by pow1
c No.1 Divisor=9	generated by pow1
c No.2 Divisor=9	generated by pow1
c p0= 9	p1= 9	p2= 9	
c number of digits = 4
c linkingVar[0].size = 9, linkingVar[1].size = 9, linkingVar[2].size = 7, linkingVar[3].size = 1, 
c Pseudo-Boolean Constraints: 191054 variables and 1361147 clauses
c Sum of weights = 364302
c A number of soft clauses remained = 11250
c MRWTO encoding for Pseudo-Boolean Constraints
c sizeMax=530
c No.0 Divisor=9	generated by pow1
c No.1 Divisor=9	generated by pow1
c No.2 Divisor=9	generated by pow1
c p0= 9	p1= 9	p2= 9	
c number of digits = 4
c linkingVar[0].size = 9, linkingVar[1].size = 9, linkingVar[2].size = 7, linkingVar[3].size = 1, 
c Pseudo-Boolean Constraints: 191054 variables and 1361147 clauses
c last restart ## conflicts  :  7578 90649 
o 463 | cpuTime 202.297 s
c last restart ## conflicts  :  1510 126999 
o 244 | cpuTime 1581.38 s
c last restart ## conflicts  :  320 82602 
o 203 | cpuTime 1791.05 s
c last restart ## conflicts  :  975 66036 
o 196 | cpuTime 2402.3 s
c last restart ## conflicts  :  333 137496 
o 194 | cpuTime 2922.05 s
c last restart ## conflicts  :  223 71479 
o 187 | cpuTime 2946.33 s
c last restart ## conflicts  :  263 65243 
o 179 | cpuTime 2976.51 s
c last restart ## conflicts  :  417 67328 
o 176 | cpuTime 3111.96 s
s UNKNOWN
c Search is stopped by a limit (maybe time-limit)
cr positiVarArr: [ | 102(1->65) | 160(1->10) | 304(1->41) | 394(1->18) | 512(1->23) | 656(1->54) | 761(1->46) | 895(1->67) | 996(1->55) | 1126(1->72) | 1179(1->12) | 1293(1->13) | 1400(1->7) | 1563(1->57) | 1643(1->24) | 1783(1->51) | 1904(1->59) | 2003(1->45) | 2079(1->8) | 2187(1->3) | 2340(1->43) | 2483(1->73) | 2598(1->75) | 2667(1->31) | 2820(1->71) | 2915(1->53) | 2979(1->4) | 3158(1->70) | 3207(1->6) | 3336(1->22) | 3452(1->25) | 3549(1->9) | 3673(1->20) | 3815(1->49) | 3942(1->63) | 4056(1->64) | 4137(1->32) | 4292(1->74) | 4359(2->28) | 4442(3->1) | 4604(4->47) | 4685(5->15) | 4843(6->60) | 4972(7->76) | 5077(8->68) | 5092(9->1) | 5275(10->40) | 5348(11->1) | 5505(12->44) | 5585(13->11) | 5753(14->66) | 5848(15->48) | 5884(16->1) | 6017(17->1) | 6120(18->1) | 6235(19->1) | 6402(20->37) | 6457(21->1) | 6556(22->1) | 6696(23->1) | 6856(24->39) | 6944(25->14) | 7060(26->17) | 7189(27->33) | 7254(28->1) | 7384(29->2) | 7557(30->62) | 7581(31->1) | 7718(32->1) | 7803(33->1) | 7982(34->35) | 8079(35->19) | 8145(36->1) | 8291(37->5) | 8400(38->1) | 8479(39->1) | 8602(40->1) | 8716(41->1) | 8819(42->1) | 9006(43->42) | 9071(44->1) | 9206(45->16) | 9330(46->27) | 9485(47->69) | 9558(48->29) | 9624(49->1) | 9730(50->1) | 9898(51->30) | 9957(52->1) | 10083(53->1) | 10243(54->36) | 10378(55->58) | 10421(56->1) | 10580(57->34) | 10652(58->1) | 10798(59->26) | 10872(60->1) | 10972(61->1) | 11101(62->1) | 11220(63->1) | 11301(64->1) | 11430(65->1) | 11562(66->1) | 11732(67->56) | 11841(68->52) | 11963(69->61) | 12036(70->21) | 12166(71->38) | 12236(72->1) | 12338(73->1) | 12433(74->1) | 12630(75->50) | 12679(76->1) | ]
cr the 1-th chain: [ 1->65->1 ] (#non-depot=1) {#cumul.=2}
cr the 2-th chain: [ 1->10->40->1 ] (#non-depot=2) {#cumul.=4}
cr the 3-th chain: [ 1->41->1 ] (#non-depot=1) {#cumul.=5}
cr the 4-th chain: [ 1->18->1 ] (#non-depot=1) {#cumul.=6}
cr the 5-th chain: [ 1->23->1 ] (#non-depot=1) {#cumul.=7}
cr the 6-th chain: [ 1->54->36->1 ] (#non-depot=2) {#cumul.=9}
cr the 7-th chain: [ 1->46->27->33->1 ] (#non-depot=3) {#cumul.=12}
cr the 8-th chain: [ 1->67->56->1 ] (#non-depot=2) {#cumul.=14}
cr the 9-th chain: [ 1->55->58->1 ] (#non-depot=2) {#cumul.=16}
cr the 10-th chain: [ 1->72->1 ] (#non-depot=1) {#cumul.=17}
cr the 11-th chain: [ 1->12->44->1 ] (#non-depot=2) {#cumul.=19}
cr the 12-th chain: [ 1->13->11->1 ] (#non-depot=2) {#cumul.=21}
cr the 13-th chain: [ 1->7->76->1 ] (#non-depot=2) {#cumul.=23}
cr the 14-th chain: [ 1->57->34->35->19->1 ] (#non-depot=4) {#cumul.=27}
cr the 15-th chain: [ 1->24->39->1 ] (#non-depot=2) {#cumul.=29}
cr the 16-th chain: [ 1->51->30->62->1 ] (#non-depot=3) {#cumul.=32}
cr the 17-th chain: [ 1->59->26->17->1 ] (#non-depot=3) {#cumul.=35}
cr the 18-th chain: [ 1->45->16->1 ] (#non-depot=2) {#cumul.=37}
cr the 19-th chain: [ 1->8->68->52->1 ] (#non-depot=3) {#cumul.=40}
cr the 20-th chain: [ 1->3->1 ] (#non-depot=1) {#cumul.=41}
cr the 21-th chain: [ 1->43->42->1 ] (#non-depot=2) {#cumul.=43}
cr the 22-th chain: [ 1->73->1 ] (#non-depot=1) {#cumul.=44}
cr the 23-th chain: [ 1->75->50->1 ] (#non-depot=2) {#cumul.=46}
cr the 24-th chain: [ 1->31->1 ] (#non-depot=1) {#cumul.=47}
cr the 25-th chain: [ 1->71->38->1 ] (#non-depot=2) {#cumul.=49}
cr the 26-th chain: [ 1->53->1 ] (#non-depot=1) {#cumul.=50}
cr the 27-th chain: [ 1->4->47->69->61->1 ] (#non-depot=4) {#cumul.=54}
cr the 28-th chain: [ 1->70->21->1 ] (#non-depot=2) {#cumul.=56}
cr the 29-th chain: [ 1->6->60->1 ] (#non-depot=2) {#cumul.=58}
cr the 30-th chain: [ 1->22->1 ] (#non-depot=1) {#cumul.=59}
cr the 31-th chain: [ 1->25->14->66->1 ] (#non-depot=3) {#cumul.=62}
cr the 32-th chain: [ 1->9->1 ] (#non-depot=1) {#cumul.=63}
cr the 33-th chain: [ 1->20->37->5->15->48->29->2->28->1 ] (#non-depot=8) {#cumul.=71}
cr the 34-th chain: [ 1->49->1 ] (#non-depot=1) {#cumul.=72}
cr the 35-th chain: [ 1->63->1 ] (#non-depot=1) {#cumul.=73}
cr the 36-th chain: [ 1->64->1 ] (#non-depot=1) {#cumul.=74}
cr the 37-th chain: [ 1->32->1 ] (#non-depot=1) {#cumul.=75}
cr the 38-th chain: [ 1->74->1 ] (#non-depot=1) {#cumul.=76}
c Latest Answer = 0 by 9 loops
c restarts              : 446
c conflicts             : 6368601        (1718 /sec)
c decisions             : 53739912       (0.00 % random) (14500 /sec)
c propagations          : 15737818807    (4246272 /sec)
c conflict literals     : 4326289236     (12.15 % deleted)
c Memory used           : 7346.00 MB
c CPU time              : 3706.27 s
